(declare-const i Int)
(declare-const term_to_project_onto_integralized Int)
(declare-const term_to_project_onto0_integralized Int)
(declare-const term_to_project_onto1_integralized Int)
(assert (exists
         ((|l'?1?1| Int) (|k'?2?2| Int) (phi_l?3?3 Int) (havoc?4?4 Int)
            (|i'?5?5| Int) (K?6?6 Int) (|i'?7?7| Int) (k?8?8 Int) (n?9?9 Int)
            (l?10?10 Int))
         (and (<= (+ (- k?8?8) 1) 0) (<= (+ (- l?10?10) 1) 0)
                (<= (+ (- n?9?9) k?8?8 1) 0)
                (= (+ (- |i'?5?5|) K?6?6 l?10?10) 0)
                (or (and (= K?6?6 0) (= (+ (- |i'?5?5|) l?10?10) 0))
                      (and (<= (+ (- K?6?6) 1) 0) (<= (+ (- l?10?10) 1) 0)
                             (<= (+ (- n?9?9) l?10?10 1) 0)
                             (<= (+ (- |i'?5?5|) 2) 0)
                             (<= (+ |i'?5?5| (- n?9?9)) 0))) (<= (- K?6?6) 0)
                (<= (+ (- |i'?5?5|) 1) 0) (<= (+ (- n?9?9) 1) 0)
                (<= (+ (- |i'?5?5|) n?9?9) 0)
                (or (and (= havoc?4?4 0) (= (+ (- phi_l?3?3) l?10?10) 0))
                      (and (or (<= (+ havoc?4?4 1) 0)
                                 (<= (+ (- havoc?4?4) 1) 0))
                             (= (+ (- phi_l?3?3) l?10?10 1) 0)))
                (= (+ |l'?1?1| (- phi_l?3?3)) 0)
                (= (+ |k'?2?2| (- k?8?8) -1) 0)
                (= (+ |i'?7?7| (- |i'?5?5|)) 0)
                (= (+ term_to_project_onto1_integralized
                        (- (+ |i'?7?7| (- i)))) 0)
                (= (+ term_to_project_onto0_integralized
                        (- (+ |k'?2?2| (- k?8?8)))) 0)
                (= (+ term_to_project_onto_integralized
                        (- (+ |l'?1?1| (- l?10?10)))) 0))))